(set-logic QF_S)
(declare-fun var0 () String)
(assert (str.in.re var0 (re.++ (re.union (re.* (str.to.re "000")) (re.+ (str.to.re "111"))) (re.++ (re.* (re.* (str.to.re "2"))) (re.++ (re.* (re.union (str.to.re "3") (str.to.re "4"))) (re.++ (re.+ (re.+ (str.to.re "5"))) (re.++ (re.union (re.+ (str.to.re "66")) (re.+ (str.to.re "777"))) (re.++ (re.* (re.+ (str.to.re "8"))) (re.++ (re.* (re.* (str.to.re "9"))) (re.++ (re.+ (re.* (str.to.re "a"))) (re.++ (re.+ (re.union (str.to.re "bbb") (str.to.re "ccc"))) (re.++ (re.* (re.union (str.to.re "d") (str.to.re "e"))) (re.++ (re.+ (re.union (str.to.re "f") (str.to.re "gg"))) (re.++ (re.union (re.+ (str.to.re "hhh")) (re.union (str.to.re "ii") (str.to.re "jj"))) (re.++ (re.union (re.* (str.to.re "kkk")) (re.+ (str.to.re "lll"))) (re.++ (re.+ (re.* (str.to.re "mmm"))) (re.++ (re.* (re.+ (str.to.re "nnn"))) (re.++ (re.+ (re.union (str.to.re "ooo") (str.to.re "ppp"))) (re.++ (re.+ (re.union (str.to.re "qqq") (str.to.re "rr"))) (re.++ (re.* (re.* (str.to.re "s"))) (re.++ (re.union (re.* (str.to.re "ttt")) (re.* (str.to.re "uuu"))) (re.++ (re.union (re.* (str.to.re "v")) (re.* (str.to.re "ww"))) (re.++ (re.* (re.+ (str.to.re "x"))) (re.++ (re.* (re.+ (str.to.re "yy"))) (re.++ (re.union (re.+ (str.to.re "z")) (re.union (str.to.re "A") (str.to.re "B"))) (re.++ (re.* (re.+ (str.to.re "C"))) (re.++ (re.* (re.union (str.to.re "DD") (str.to.re "EE"))) (re.++ (re.+ (re.* (str.to.re "FF"))) (re.++ (re.+ (re.union (str.to.re "GG") (str.to.re "HHH"))) (re.++ (re.union (re.union (str.to.re "II") (str.to.re "JJ")) (re.+ (str.to.re "KKK"))) (re.++ (re.* (re.* (str.to.re "LL"))) (re.++ (re.union (re.union (str.to.re "MM") (str.to.re "NNN")) (re.+ (str.to.re "OOO"))) (re.++ (re.+ (re.+ (str.to.re "P"))) (re.++ (re.* (re.union (str.to.re "Q") (str.to.re "R"))) (re.++ (re.* (re.* (str.to.re "SSS"))) (re.++ (re.union (re.* (str.to.re "TTT")) (re.* (str.to.re "UU"))) (re.++ (re.union (re.union (str.to.re "VV") (str.to.re "WW")) (re.union (str.to.re "X") (str.to.re "Y"))) (re.++ (re.+ (re.+ (str.to.re "Z"))) (re.++ (re.union (re.+ (str.to.re "!")) (re.union (str.to.re """""") (str.to.re "#"))) (re.++ (re.+ (re.union (str.to.re "$") (str.to.re "%"))) (re.++ (re.union (re.+ (str.to.re "&&&")) (re.union (str.to.re "''") (str.to.re "((("))) (re.++ (re.union (re.* (str.to.re ")")) (re.* (str.to.re "*"))) (re.++ (re.union (re.* (str.to.re "++")) (re.* (str.to.re ",,,"))) (re.++ (re.union (re.+ (str.to.re "-")) (re.* (str.to.re "..."))) (re.++ (re.union (re.union (str.to.re "/") (str.to.re ":")) (re.union (str.to.re ";") (str.to.re "<"))) (re.++ (re.union (re.union (str.to.re "===") (str.to.re ">>")) (re.+ (str.to.re "??"))) (re.++ (re.+ (re.union (str.to.re "@@@") (str.to.re "[["))) (re.++ (re.+ (re.* (str.to.re "\\\\\\"))) (re.++ (re.union (re.union (str.to.re "]]]") (str.to.re "^^^")) (re.+ (str.to.re "___"))) (re.++ (re.+ (re.+ (str.to.re "```"))) (re.++ (re.union (re.+ (str.to.re "{")) (re.union (str.to.re "||") (str.to.re "}"))) (re.++ (re.* (re.* (str.to.re "~~"))) (re.++ (re.union (re.+ (str.to.re "000")) (re.* (str.to.re "11"))) (re.++ (re.+ (re.union (str.to.re "222") (str.to.re "333"))) (re.++ (re.* (re.union (str.to.re "4") (str.to.re "55"))) (re.++ (re.+ (re.union (str.to.re "6") (str.to.re "77"))) (re.++ (re.+ (re.+ (str.to.re "888"))) (re.++ (re.+ (re.+ (str.to.re "9"))) (re.++ (re.+ (re.* (str.to.re "a"))) (re.++ (re.union (re.+ (str.to.re "bb")) (re.+ (str.to.re "c"))) (re.++ (re.* (re.* (str.to.re "d"))) (re.++ (re.union (re.+ (str.to.re "e")) (re.+ (str.to.re "ff"))) (re.++ (re.union (re.+ (str.to.re "gg")) (re.* (str.to.re "hhh"))) (re.++ (re.* (re.union (str.to.re "iii") (str.to.re "jj"))) (re.++ (re.+ (re.* (str.to.re "kk"))) (re.++ (re.union (re.union (str.to.re "l") (str.to.re "m")) (re.* (str.to.re "nnn"))) (re.++ (re.* (re.union (str.to.re "oo") (str.to.re "p"))) (re.++ (re.* (re.+ (str.to.re "qqq"))) (re.++ (re.* (re.+ (str.to.re "rr"))) (re.++ (re.+ (re.+ (str.to.re "ss"))) (re.++ (re.* (re.* (str.to.re "tt"))) (re.++ (re.+ (re.+ (str.to.re "u"))) (re.++ (re.+ (re.* (str.to.re "vvv"))) (re.++ (re.* (re.union (str.to.re "www") (str.to.re "xx"))) (re.++ (re.* (re.+ (str.to.re "y"))) (re.++ (re.union (re.union (str.to.re "z") (str.to.re "A")) (re.+ (str.to.re "BB"))) (re.++ (re.+ (re.+ (str.to.re "CC"))) (re.++ (re.+ (re.union (str.to.re "D") (str.to.re "EEE"))) (re.++ (re.+ (re.* (str.to.re "FFF"))) (re.++ (re.* (re.union (str.to.re "GG") (str.to.re "H"))) (re.++ (re.* (re.+ (str.to.re "I"))) (re.++ (re.union (re.* (str.to.re "JJ")) (re.+ (str.to.re "KK"))) (re.++ (re.* (re.+ (str.to.re "LLL"))) (re.++ (re.+ (re.union (str.to.re "M") (str.to.re "N"))) (re.++ (re.+ (re.* (str.to.re "OOO"))) (re.++ (re.+ (re.+ (str.to.re "PP"))) (re.++ (re.union (re.union (str.to.re "QQQ") (str.to.re "R")) (re.* (str.to.re "SSS"))) (re.++ (re.union (re.union (str.to.re "TTT") (str.to.re "UU")) (re.+ (str.to.re "VVV"))) (re.++ (re.* (re.* (str.to.re "WWW"))) (re.++ (re.* (re.+ (str.to.re "X"))) (re.++ (re.union (re.union (str.to.re "YYY") (str.to.re "Z")) (re.union (str.to.re "!!!") (str.to.re """"""))) (re.++ (re.+ (re.+ (str.to.re "###"))) (re.++ (re.* (re.* (str.to.re "$"))) (re.++ (re.* (re.+ (str.to.re "%%"))) (re.++ (re.union (re.* (str.to.re "&&&")) (re.union (str.to.re "'''") (str.to.re "(("))) (re.++ (re.union (re.* (str.to.re "))")) (re.* (str.to.re "**"))) (re.++ (re.* (re.+ (str.to.re "+"))) (re.++ (re.union (re.union (str.to.re ",,,") (str.to.re "-")) (re.* (str.to.re ".."))) (re.++ (re.* (re.+ (str.to.re "/"))) (re.++ (re.union (re.union (str.to.re ":") (str.to.re ";;;")) (re.* (str.to.re "<<"))) (re.++ (re.* (re.union (str.to.re "==") (str.to.re ">>"))) (re.++ (re.* (re.union (str.to.re "???") (str.to.re "@@"))) (re.++ (re.union (re.union (str.to.re "[[[") (str.to.re "\\\\")) (re.* (str.to.re "]]"))) (re.++ (re.* (re.+ (str.to.re "^^^"))) (re.++ (re.* (re.* (str.to.re "___"))) (re.++ (re.+ (re.* (str.to.re "``"))) (re.++ (re.union (re.* (str.to.re "{")) (re.union (str.to.re "|") (str.to.re "}"))) (re.++ (re.+ (re.union (str.to.re "~") (str.to.re "00"))) (re.++ (re.+ (re.union (str.to.re "1") (str.to.re "222"))) (re.++ (re.union (re.union (str.to.re "33") (str.to.re "4")) (re.+ (str.to.re "555"))) (re.++ (re.* (re.* (str.to.re "666"))) (re.++ (re.+ (re.+ (str.to.re "77"))) (re.++ (re.+ (re.* (str.to.re "888"))) (re.++ (re.+ (re.* (str.to.re "9"))) (re.++ (re.* (re.+ (str.to.re "aaa"))) (re.++ (re.union (re.union (str.to.re "bb") (str.to.re "c")) (re.union (str.to.re "ddd") (str.to.re "ee"))) (re.++ (re.* (re.+ (str.to.re "f"))) (re.++ (re.* (re.+ (str.to.re "gg"))) (re.++ (re.union (re.union (str.to.re "h") (str.to.re "ii")) (re.+ (str.to.re "jjj"))) (re.++ (re.union (re.union (str.to.re "k") (str.to.re "ll")) (re.* (str.to.re "m"))) (re.++ (re.union (re.union (str.to.re "nnn") (str.to.re "oo")) (re.+ (str.to.re "p"))) (re.++ (re.+ (re.+ (str.to.re "q"))) (re.++ (re.+ (re.union (str.to.re "r") (str.to.re "s"))) (re.++ (re.union (re.* (str.to.re "tt")) (re.+ (str.to.re "uu"))) (re.++ (re.+ (re.+ (str.to.re "vvv"))) (re.++ (re.union (re.+ (str.to.re "w")) (re.union (str.to.re "x") (str.to.re "y"))) (re.++ (re.* (re.union (str.to.re "z") (str.to.re "AA"))) (re.++ (re.+ (re.union (str.to.re "BBB") (str.to.re "CC"))) (re.++ (re.+ (re.* (str.to.re "DD"))) (re.++ (re.union (re.union (str.to.re "EE") (str.to.re "FFF")) (re.* (str.to.re "GGG"))) (re.++ (re.* (re.union (str.to.re "HHH") (str.to.re "II"))) (re.++ (re.* (re.* (str.to.re "J"))) (re.++ (re.* (re.* (str.to.re "K"))) (re.++ (re.+ (re.* (str.to.re "LLL"))) (re.++ (re.* (re.* (str.to.re "MMM"))) (re.++ (re.+ (re.union (str.to.re "NN") (str.to.re "OOO"))) (re.++ (re.union (re.union (str.to.re "PPP") (str.to.re "QQ")) (re.+ (str.to.re "RRR"))) (re.++ (re.+ (re.+ (str.to.re "SSS"))) (re.++ (re.* (re.+ (str.to.re "TT"))) (re.++ (re.* (re.union (str.to.re "UU") (str.to.re "V"))) (re.++ (re.union (re.+ (str.to.re "WWW")) (re.+ (str.to.re "XXX"))) (re.++ (re.* (re.union (str.to.re "YY") (str.to.re "ZZ"))) (re.* (re.union (str.to.re "!!") (str.to.re """")))))))))))))))))))))))))))))))))))))))))))))))))))))))))))))))))))))))))))))))))))))))))))))))))))))))))))))))))))))))))))))))))))))))))))))))))
(check-sat)